NAME : rnd47_20.tsp
TYPE : TSP
DIMENSION : 20
EDGE_WEIGHT_TYPE : EUC_2D
NODE_COORD_SECTION
1 703 436
2 621 413
3 784 173
4 469 735
5 416 969
6 132 595
7 475 710
8 303 768
9 774 574
10 270 713
11 565 686
12 423 518
13 973 656
14 533 323
15 260 154
16 808 729
17 131 334
18 804 545
19 644 944
20 158 880
